19
0 1 1 2 3 4 4 2 5 1 2 6 0 5 4 7 7 5 5 8 7 6 8 4 7 9 6 10 11 10 6 9 8 12 2 12 11 10 2 9 12 1 13 11 6 13 10 14 13 12 11 15 0 11 5 13 14 1 9 14 5 12 4 8 14 15 16 6 2 15 7 17 6 3 9 8 16 16 11 14 12 9 15 17 8 8 2 18 1 9 0 3 3 18 10 4 17 13 18 15 
